JulietBench/Juliet_Based_Patch_Bench/FFmpeg/CWE-189-Numeric-Errors/CVE_2013_0876_5260edee7e5bd975837696c8c8c1a80eb2fbd7c1/Resultold_codec37_Snippet_patch1EQ.smt2
; benchmark generated from python API
(set-info :status unknown)
(declare-fun r9 () (_ BitVec 64))
(declare-fun R () (_ BitVec 32))
(declare-fun rsi () (_ BitVec 64))
(declare-fun r8 () (_ BitVec 64))
(declare-fun rdx () (_ BitVec 64))
(declare-fun rdi () (_ BitVec 64))
(declare-fun rcx () (_ BitVec 64))
(assert
 (let ((?x16 ((_ extract 31 0) r9)))
 (let (($x205 (= R ?x16)))
 (let ((?x8 ((_ extract 31 0) rsi)))
 (let ((?x14 ((_ extract 31 0) r8)))
 (let ((?x25 (bvmul ?x14 ?x8)))
 (let ((?x10 ((_ extract 31 0) rdx)))
 (let ((?x6 ((_ extract 31 0) rdi)))
 (let ((?x29 (bvmul ?x14 ?x6)))
 (let ((?x26 (bvsub ?x29 ?x10)))
 (let ((?x130 (bvsub ?x26 ?x25)))
 (let (($x132 (bvule ?x16 ?x130)))
 (let (($x210 (and $x132 $x205)))
 (let ((?x30 (bvmul (_ bv4294967295 32) ?x25)))
 (let ((?x21 (bvmul (_ bv4294967295 32) ?x10)))
 (let ((?x114 (bvadd ?x29 ?x21)))
 (let ((?x203 (bvadd ?x114 ?x30)))
 (let (($x208 (= R ?x203)))
 (let (($x171 (bvugt ?x16 ?x130)))
 (let (($x209 (and $x171 $x208)))
 (let (($x211 (or $x209 $x210)))
 (let ((?x12 ((_ extract 31 0) rcx)))
 (let ((?x17 (bvmul ?x14 ?x12)))
 (let ((?x18 (bvsub ?x17 ?x10)))
 (let ((?x28 (bvsub ?x18 ?x25)))
 (let (($x35 (bvule ?x16 ?x28)))
 (let (($x206 (and $x35 $x205)))
 (let ((?x22 (bvadd ?x17 ?x21)))
 (let ((?x124 (bvadd ?x22 ?x30)))
 (let (($x190 (= R ?x124)))
 (let (($x89 (bvugt ?x16 ?x28)))
 (let (($x181 (and $x89 $x190)))
 (let (($x207 (or $x181 $x206)))
 (and $x207 $x211))))))))))))))))))))))))))))))))))
(check-sat)
